NAME: cum90.tsp
TYPE: TSP
COMMENT: User-generated TSP file
DIMENSION: 450
EDGE_WEIGHT_TYPE: EUC_2D
NODE_COORD_SECTION
1 411.0 72.0
2 24.0 257.0
3 7.0 42.0
4 165.0 386.0
5 373.0 201.0
6 89.0 420.0
7 266.0 160.0
8 111.0 50.0
9 379.0 383.0
10 430.0 347.0
11 278.0 190.0
12 395.0 374.0
13 350.0 249.0
14 303.0 122.0
15 158.0 256.0
16 145.0 276.0
17 165.0 390.0
18 391.0 314.0
19 249.0 328.0
20 370.0 80.0
21 161.0 354.0
22 299.0 205.0
23 253.0 106.0
24 365.0 67.0
25 36.0 293.0
26 369.0 413.0
27 11.0 282.0
28 211.0 37.0
29 211.0 301.0
30 216.0 154.0
31 272.0 439.0
32 105.0 292.0
33 66.0 80.0
34 4.0 369.0
35 325.0 112.0
36 237.0 123.0
37 189.0 80.0
38 7.0 169.0
39 32.0 96.0
40 274.0 381.0
41 450.0 180.0
42 389.0 288.0
43 444.0 329.0
44 36.0 125.0
45 177.0 106.0
46 251.0 435.0
47 189.0 288.0
48 289.0 15.0
49 38.0 327.0
50 167.0 437.0
51 353.0 177.0
52 7.0 269.0
53 438.0 265.0
54 87.0 36.0
55 128.0 81.0
56 160.0 255.0
57 396.0 73.0
58 336.0 354.0
59 161.0 402.0
60 235.0 236.0
61 374.0 204.0
62 240.0 206.0
63 21.0 359.0
64 82.0 239.0
65 371.0 182.0
66 232.0 70.0
67 395.0 384.0
68 418.0 31.0
69 227.0 235.0
70 109.0 299.0
71 172.0 208.0
72 94.0 326.0
73 249.0 42.0
74 443.0 257.0
75 159.0 357.0
76 266.0 112.0
77 407.0 351.0
78 94.0 159.0
79 225.0 12.0
80 399.0 69.0
81 200.0 241.0
82 15.0 375.0
83 281.0 347.0
84 402.0 51.0
85 290.0 217.0
86 113.0 300.0
87 426.0 425.0
88 141.0 411.0
89 88.0 177.0
90 94.0 147.0
91 95.0 215.0
92 222.0 284.0
93 246.0 191.0
94 283.0 338.0
95 260.0 416.0
96 398.0 290.0
97 210.0 221.0
98 413.0 340.0
99 135.0 19.0
100 121.0 302.0
101 109.0 223.0
102 350.0 207.0
103 14.0 12.0
104 253.0 132.0
105 207.0 254.0
106 289.0 156.0
107 49.0 39.0
108 119.0 276.0
109 114.0 26.0
110 96.0 446.0
111 193.0 325.0
112 146.0 288.0
113 167.0 114.0
114 204.0 437.0
115 398.0 59.0
116 327.0 353.0
117 164.0 78.0
118 62.0 405.0
119 242.0 350.0
120 376.0 99.0
121 189.0 183.0
122 317.0 12.0
123 431.0 204.0
124 302.0 280.0
125 257.0 335.0
126 15.0 356.0
127 307.0 123.0
128 373.0 420.0
129 62.0 245.0
130 261.0 247.0
131 79.0 355.0
132 439.0 288.0
133 271.0 64.0
134 195.0 102.0
135 122.0 148.0
136 176.0 194.0
137 409.0 308.0
138 250.0 249.0
139 44.0 151.0
140 417.0 115.0
141 153.0 217.0
142 101.0 310.0
143 331.0 226.0
144 279.0 35.0
145 263.0 262.0
146 6.0 20.0
147 83.0 71.0
148 219.0 185.0
149 143.0 106.0
150 364.0 244.0
151 438.0 299.0
152 401.0 128.0
153 183.0 357.0
154 337.0 65.0
155 349.0 197.0
156 286.0 1.0
157 333.0 288.0
158 175.0 366.0
159 153.0 122.0
160 15.0 267.0
161 449.0 240.0
162 230.0 40.0
163 144.0 403.0
164 257.0 365.0
165 266.0 41.0
166 211.0 353.0
167 236.0 266.0
168 358.0 267.0
169 96.0 428.0
170 414.0 450.0
171 366.0 339.0
172 382.0 21.0
173 298.0 338.0
174 343.0 254.0
175 223.0 251.0
176 119.0 319.0
177 113.0 413.0
178 11.0 9.0
179 24.0 349.0
180 421.0 278.0
181 431.0 129.0
182 15.0 228.0
183 170.0 414.0
184 406.0 37.0
185 450.0 420.0
186 61.0 405.0
187 323.0 133.0
188 223.0 347.0
189 28.0 442.0
190 195.0 248.0
191 428.0 300.0
192 62.0 339.0
193 421.0 248.0
194 79.0 83.0
195 143.0 295.0
196 8.0 354.0
197 6.0 421.0
198 65.0 312.0
199 410.0 7.0
200 158.0 396.0
201 261.0 117.0
202 411.0 238.0
203 205.0 49.0
204 338.0 433.0
205 159.0 362.0
206 45.0 224.0
207 400.0 245.0
208 113.0 29.0
209 198.0 432.0
210 14.0 372.0
211 100.0 1.0
212 52.0 375.0
213 391.0 118.0
214 85.0 97.0
215 343.0 404.0
216 314.0 294.0
217 89.0 70.0
218 122.0 389.0
219 424.0 355.0
220 363.0 83.0
221 235.0 125.0
222 199.0 319.0
223 287.0 193.0
224 17.0 327.0
225 155.0 10.0
226 335.0 211.0
227 142.0 256.0
228 435.0 182.0
229 40.0 293.0
230 239.0 217.0
231 272.0 391.0
232 112.0 195.0
233 298.0 36.0
234 284.0 444.0
235 29.0 432.0
236 151.0 418.0
237 424.0 141.0
238 330.0 296.0
239 19.0 12.0
240 445.0 263.0
241 172.0 243.0
242 278.0 56.0
243 264.0 129.0
244 434.0 417.0
245 197.0 286.0
246 183.0 426.0
247 377.0 129.0
248 19.0 337.0
249 328.0 295.0
250 416.0 230.0
251 182.0 333.0
252 306.0 57.0
253 20.0 448.0
254 393.0 344.0
255 332.0 97.0
256 50.0 431.0
257 78.0 50.0
258 85.0 62.0
259 127.0 261.0
260 270.0 132.0
261 395.0 181.0
262 319.0 192.0
263 261.0 376.0
264 384.0 438.0
265 285.0 50.0
266 380.0 188.0
267 219.0 240.0
268 403.0 113.0
269 374.0 110.0
270 21.0 43.0
271 108.0 77.0
272 17.0 123.0
273 87.0 322.0
274 262.0 319.0
275 113.0 93.0
276 335.0 83.0
277 91.0 218.0
278 99.0 92.0
279 448.0 37.0
280 288.0 332.0
281 85.0 224.0
282 396.0 374.0
283 12.0 214.0
284 423.0 4.0
285 226.0 177.0
286 214.0 161.0
287 227.0 143.0
288 26.0 258.0
289 175.0 221.0
290 270.0 95.0
291 231.0 403.0
292 275.0 103.0
293 157.0 271.0
294 38.0 192.0
295 5.0 190.0
296 370.0 210.0
297 123.0 430.0
298 182.0 149.0
299 260.0 116.0
300 64.0 283.0
301 385.0 274.0
302 102.0 87.0
303 304.0 333.0
304 379.0 299.0
305 11.0 6.0
306 295.0 315.0
307 259.0 308.0
308 304.0 204.0
309 36.0 29.0
310 374.0 49.0
311 430.0 371.0
312 7.0 446.0
313 336.0 6.0
314 305.0 226.0
315 206.0 21.0
316 87.0 435.0
317 21.0 311.0
318 334.0 94.0
319 141.0 300.0
320 234.0 432.0
321 142.0 36.0
322 358.0 32.0
323 367.0 65.0
324 58.0 100.0
325 431.0 97.0
326 403.0 65.0
327 224.0 224.0
328 148.0 322.0
329 219.0 125.0
330 334.0 333.0
331 302.0 126.0
332 293.0 152.0
333 302.0 255.0
334 36.0 156.0
335 263.0 5.0
336 345.0 190.0
337 356.0 269.0
338 124.0 44.0
339 223.0 53.0
340 170.0 201.0
341 24.0 219.0
342 286.0 439.0
343 35.0 91.0
344 96.0 42.0
345 176.0 326.0
346 360.0 227.0
347 64.0 29.0
348 91.0 211.0
349 245.0 217.0
350 442.0 163.0
351 286.0 256.0
352 397.0 151.0
353 136.0 261.0
354 220.0 1.0
355 355.0 168.0
356 240.0 37.0
357 311.0 221.0
358 267.0 9.0
359 193.0 392.0
360 126.0 382.0
361 23.0 42.0
362 406.0 45.0
363 324.0 270.0
364 171.0 287.0
365 356.0 331.0
366 71.0 440.0
367 157.0 105.0
368 62.0 261.0
369 78.0 344.0
370 123.0 401.0
371 78.0 90.0
372 185.0 38.0
373 307.0 199.0
374 328.0 67.0
375 449.0 300.0
376 240.0 389.0
377 261.0 207.0
378 20.0 80.0
379 414.0 349.0
380 219.0 440.0
381 97.0 41.0
382 21.0 390.0
383 54.0 396.0
384 449.0 390.0
385 227.0 14.0
386 31.0 445.0
387 439.0 402.0
388 54.0 47.0
389 333.0 129.0
390 22.0 416.0
391 71.0 423.0
392 18.0 265.0
393 80.0 132.0
394 259.0 268.0
395 38.0 332.0
396 371.0 385.0
397 274.0 336.0
398 388.0 99.0
399 24.0 83.0
400 170.0 185.0
401 305.0 363.0
402 159.0 246.0
403 47.0 246.0
404 358.0 98.0
405 14.0 126.0
406 29.0 99.0
407 60.0 243.0
408 21.0 45.0
409 101.0 159.0
410 300.0 250.0
411 156.0 244.0
412 31.0 90.0
413 340.0 24.0
414 399.0 198.0
415 212.0 294.0
416 357.0 77.0
417 276.0 262.0
418 46.0 410.0
419 24.0 450.0
420 281.0 175.0
421 142.0 150.0
422 339.0 217.0
423 302.0 104.0
424 87.0 145.0
425 198.0 437.0
426 240.0 164.0
427 217.0 77.0
428 211.0 111.0
429 88.0 415.0
430 185.0 371.0
431 79.0 404.0
432 296.0 425.0
433 423.0 164.0
434 201.0 261.0
435 79.0 22.0
436 39.0 201.0
437 221.0 20.0
438 447.0 55.0
439 130.0 412.0
440 409.0 391.0
441 72.0 35.0
442 114.0 209.0
443 178.0 112.0
444 380.0 108.0
445 312.0 268.0
446 405.0 142.0
447 177.0 28.0
448 335.0 410.0
449 57.0 300.0
450 126.0 47.0
EOF

